(declare-fun limit_ack!98 () (_ BitVec 64))
(declare-fun a_ack!99 () (_ BitVec 64))
(declare-fun b_ack!94 () (_ BitVec 64))
(declare-fun epsabs_ack!96 () (_ BitVec 64))
(declare-fun epsrel_ack!97 () (_ BitVec 64))
(declare-fun c_ack!95 () (_ BitVec 64))
(assert (not (bvult #x00000000000003e8 limit_ack!98)))
(assert (not (fp.lt ((_ to_fp 11 53) b_ack!94) ((_ to_fp 11 53) a_ack!99))))
(assert (fp.leq ((_ to_fp 11 53) epsabs_ack!96) ((_ to_fp 11 53) #x0000000000000000)))
(assert (not (fp.lt ((_ to_fp 11 53) epsrel_ack!97)
            ((_ to_fp 11 53) #x3d09000000000000))))
(assert (not (fp.lt ((_ to_fp 11 53) epsrel_ack!97)
            ((_ to_fp 11 53) #x3a0fb0f6be506019))))
(assert (not (fp.eq ((_ to_fp 11 53) c_ack!95) ((_ to_fp 11 53) a_ack!99))))
(assert (not (fp.eq ((_ to_fp 11 53) c_ack!95) ((_ to_fp 11 53) b_ack!94))))

(check-sat)
(exit)
